solution status: optimal solution found
objective value:                     196119.048755099
d11(0,0)                                            1 	(obj:0)
d11(1,1)                                            1 	(obj:0)
d11(1,2)                                            1 	(obj:0)
d11(2,3)                                            1 	(obj:0)
d11(2,4)                                            1 	(obj:0)
d11(2,5)                                            1 	(obj:0)
d11(2,6)                                            1 	(obj:0)
d11(3,7)                                            1 	(obj:0)
d11(3,8)                                            1 	(obj:0)
d11(3,9)                                            1 	(obj:0)
d11(3,11)                                           1 	(obj:0)
d11(3,12)                                           1 	(obj:0)
d11(3,13)                                           1 	(obj:0)
d11(3,14)                                           1 	(obj:0)
d11(4,15)                                           1 	(obj:0)
d11(4,16)                                           1 	(obj:0)
d11(4,17)                                           1 	(obj:0)
d11(4,18)                                           1 	(obj:0)
d11(4,19)                                           1 	(obj:0)
d11(4,21)                                           1 	(obj:0)
d11(4,22)                                           1 	(obj:0)
d11(4,23)                                           1 	(obj:0)
d11(4,24)                                           1 	(obj:0)
d11(4,25)                                           1 	(obj:0)
d11(4,26)                                           1 	(obj:0)
d11(4,27)                                           1 	(obj:0)
d11(4,28)                                           1 	(obj:0)
d11(4,29)                                           1 	(obj:0)
d11(4,30)                                           1 	(obj:0)
d21(3,7)                                            1 	(obj:0)
d21(4,15)                                           1 	(obj:0)
d21(4,16)                                           1 	(obj:0)
d21(4,17)                                           1 	(obj:0)
d21(4,19)                                           1 	(obj:0)
d21(4,23)                                           1 	(obj:0)
d21(4,27)                                           1 	(obj:0)
STE(1,1)                             5406.74989888885 	(obj:0)
STE(0,0)                                        11025 	(obj:0)
STE(1,2)                             7064.99979777766 	(obj:0)
STE(2,3)                             2866.50000000003 	(obj:0)
STE(2,4)                             4524.74989888885 	(obj:0)
STE(2,5)                             4524.74989888885 	(obj:0)
STE(2,6)                             6182.99979777766 	(obj:0)
STE(3,7)                             326.250101111183 	(obj:0)
STE(3,8)                             1984.50000000003 	(obj:0)
STE(3,9)                                       1984.5 	(obj:0)
STE(3,10)                            3642.74989888885 	(obj:0)
STE(3,11)                                      1984.5 	(obj:0)
STE(3,12)                            3642.74989888885 	(obj:0)
STE(3,13)                            3642.74989888885 	(obj:0)
STE(3,14)                            5300.99979777766 	(obj:0)
STE(4,15)                           -2213.99979777766 	(obj:0)
STE(4,16)                           -555.749898888845 	(obj:0)
STE(4,17)                           -555.749898888817 	(obj:0)
STE(4,18)                            1102.50000000003 	(obj:0)
STE(4,19)                           -555.749898888845 	(obj:0)
STE(4,20)                                      1102.5 	(obj:0)
STE(4,21)                                      1102.5 	(obj:0)
STE(4,22)                            2760.74989888882 	(obj:0)
STE(4,23)                           -555.749898888845 	(obj:0)
STE(4,24)                                      1102.5 	(obj:0)
STE(4,25)                                      1102.5 	(obj:0)
STE(4,26)                            2760.74989888885 	(obj:0)
STE(4,27)                                      1102.5 	(obj:0)
STE(4,28)                            2760.74989888885 	(obj:0)
STE(4,29)                            2760.74989888882 	(obj:0)
STE(4,30)                            4418.99979777764 	(obj:0)
y1(3,11)                             1492.42490899996 	(obj:0)
y1(3,13)                             1492.42490899994 	(obj:0)
y1(4,15)                             1492.42490899996 	(obj:0)
y1(4,17)                             1492.42490899996 	(obj:0)
y1(4,19)                             1492.42490899996 	(obj:0)
y1(4,21)                             1492.42490899996 	(obj:0)
y1(4,23)                             1492.42490899996 	(obj:0)
y1(4,25)                             1492.42490899996 	(obj:0)
y1(4,27)                             1492.42490899996 	(obj:0)
y1(4,29)                             1492.42490899996 	(obj:0)
AVE(1)                               3265.91696791192 	(obj:0)
AVE(2)                               3332.74178563731 	(obj:0)
WB(3)                                3444.11697932125 	(obj:0)
AVE(3)                               3444.11697932125 	(obj:0)
AVE(4)                               3399.56511093778 	(obj:0)
WG(1)                                3265.91696791192 	(obj:10)
WG(2)                                3332.74178563731 	(obj:10)
WG(4)                                3399.56511093778 	(obj:10)
BG(1)                                3757.11041065959 	(obj:10)
BG(2)                                863.550713342256 	(obj:10)
BG(3)                                4196.29249897959 	(obj:10)
BG(4)                                796.727388041812 	(obj:10)
y1(1,1)                              4262.62509100004 	(obj:0)
y1(1,2)                               2770.2001820001 	(obj:0)
y1(2,3)                              1492.42490899994 	(obj:0)
y1(2,5)                              1492.42490899994 	(obj:0)
y1(3,7)                              1492.42490899996 	(obj:0)
y1(3,9)                              1492.42490899996 	(obj:0)
